
Gurobi 12.0.2 (win64) logging started Fri Jun  6 10:10:34 2025

Set parameter LogFile to value "C:\Ioana\_uni\honours\slp\algorithm\Main_files\results\others\prox_tubules_new\Task_024_Sample003_irr_gurobi.log"
Gurobi Optimizer version 12.0.2 build v12.0.2rc0 (win64 - Windows 11.0 (26100.2))

CPU model: Intel(R) Core(TM) Ultra 5 125H, instruction set [SSE2|AVX|AVX2]
Thread count: 14 physical cores, 18 logical processors, using up to 18 threads

Non-default parameters:
TimeLimit  2200

Optimize a model with 47658 rows, 34803 columns and 147850 nonzeros
Model fingerprint: 0xca729cbd
Variable types: 17409 continuous, 17394 integer (17394 binary)
Coefficient statistics:
  Matrix range     [1e-04, 8e+04]
  Objective range  [2e-04, 9e-01]
  Bounds range     [1e+00, 1e+03]
  RHS range        [1e+00, 1e+00]
Presolve removed 31249 rows and 21844 columns
Presolve time: 0.32s
Presolved: 16409 rows, 12959 columns, 54592 nonzeros
Variable types: 6413 continuous, 6546 integer (6546 binary)
Found heuristic solution: objective 18.5722444

Root relaxation: objective 3.822396e-03, 924 iterations, 0.05 seconds (0.09 work units)

    Nodes    |    Current Node    |     Objective Bounds      |     Work
 Expl Unexpl |  Obj  Depth IntInf | Incumbent    BestBd   Gap | It/Node Time

     0     0    0.00382    0   10   18.57224    0.00382   100%     -    0s
H    0     0                       2.0907713    0.00382   100%     -    0s
H    0     0                       2.0895365    0.00382   100%     -    0s
     0     0    2.08954    0    9    2.08954    2.08954  0.00%     -    1s

Cutting planes:
  Learned: 1
  Gomory: 1
  Cover: 5
  Flow cover: 4
  Flow path: 2
  Relax-and-lift: 2

Explored 1 nodes (7413 simplex iterations) in 1.51 seconds (2.00 work units)
Thread count was 18 (of 18 available processors)

Solution count 3: 2.08954 2.09077 18.5722 

Optimal solution found (tolerance 1.00e-04)
Best objective 2.089536539378e+00, best bound 2.089536539149e+00, gap 0.0000%
